c Generated map
c Size: 8 * 8, weights in range: 1 to 10, walls: True, with ratio 0.1
c dim 6 of 10
c
p sp 64 91
c graph contains 64 nodes and 91 arcs
c
a 1 9 9
a 9 1 9
a 1 2 10
a 2 1 10
a 2 10 3
a 10 2 3
a 2 3 4
a 3 2 4
a 3 11 6
a 11 3 6
a 3 4 3
a 4 3 3
a 4 12 7
a 12 4 7
a 4 5 6
a 5 4 6
a 5 13 5
a 13 5 5
a 5 6 5
a 6 5 5
a 6 14 4
a 14 6 4
a 6 7 2
a 7 6 2
a 7 15 6
a 15 7 6
a 7 8 10
a 8 7 10
a 8 16 3
a 16 8 3
a 9 17 2
a 17 9 2
a 9 10 1
a 10 9 1
a 10 18 4
a 18 10 4
a 10 11 4
a 11 10 4
a 11 12 1
a 12 11 1
a 12 20 6
a 20 12 6
a 12 13 3
a 13 12 3
a 13 14 3
a 14 13 3
a 14 15 6
a 15 14 6
a 15 16 7
a 16 15 7
a 16 24 2
a 24 16 2
a 17 18 8
a 18 17 8
a 18 26 1
a 26 18 1
a 24 32 6
a 32 24 6
a 26 34 9
a 34 26 9
a 26 27 9
a 27 26 9
a 27 35 6
a 35 27 6
a 29 37 9
a 37 29 9
a 29 30 8
a 30 29 8
a 30 38 4
a 38 30 4
a 30 31 8
a 31 30 8
a 31 39 6
a 39 31 6
a 31 32 4
a 32 31 4
a 32 40 6
a 40 32 6
a 33 41 4
a 41 33 4
a 33 34 9
a 34 33 9
a 34 42 10
a 42 34 10
a 34 35 6
a 35 34 6
a 35 43 9
a 43 35 9
a 35 36 1
a 36 35 1
a 36 44 9
a 44 36 9
a 36 37 10
a 37 36 10
a 37 45 2
a 45 37 2
a 37 38 8
a 38 37 8
a 38 46 4
a 46 38 4
a 38 39 9
a 39 38 9
a 39 47 3
a 47 39 3
a 39 40 9
a 40 39 9
a 40 48 3
a 48 40 3
a 41 49 6
a 49 41 6
a 41 42 6
a 42 41 6
a 42 50 1
a 50 42 1
a 42 43 9
a 43 42 9
a 43 51 9
a 51 43 9
a 43 44 10
a 44 43 10
a 44 52 3
a 52 44 3
a 44 45 10
a 45 44 10
a 45 53 10
a 53 45 10
a 45 46 3
a 46 45 3
a 46 54 1
a 54 46 1
a 46 47 8
a 47 46 8
a 47 55 3
a 55 47 3
a 47 48 5
a 48 47 5
a 48 56 3
a 56 48 3
a 49 57 6
a 57 49 6
a 49 50 3
a 50 49 3
a 50 58 2
a 58 50 2
a 50 51 9
a 51 50 9
a 51 59 8
a 59 51 8
a 51 52 4
a 52 51 4
a 52 60 6
a 60 52 6
a 52 53 10
a 53 52 10
a 53 61 7
a 61 53 7
a 53 54 3
a 54 53 3
a 54 62 9
a 62 54 9
a 54 55 3
a 55 54 3
a 55 63 1
a 63 55 1
a 55 56 3
a 56 55 3
a 56 64 9
a 64 56 9
a 57 58 6
a 58 57 6
a 58 59 7
a 59 58 7
a 59 60 8
a 60 59 8
a 60 61 3
a 61 60 3
a 61 62 4
a 62 61 4
a 62 63 7
a 63 62 7
a 63 64 6
a 64 63 6
